100 1531,1606 650,6197500000001 43,8797
200 13202,9009 7591,3029750000005 3317,9015
300 35788,9756 16167,954425 40,4865
400 5411,5311 2825,630575 742,1202
500 36568,4085 21145,384175 8199,3035
600 1622,1402 675,796875 35,7635
700 12377,3141 7564,18135 4061,009
800 34205,6724 15299,296375 45,0397
900 5549,3932 2790,110675 737,4773
1000 42071,2668 24029,445075 8637,0579
